c turning on binary mode checking
c parsing input formula with 202048 variables and 780985 clauses
c finished parsing, read 19212253 bytes from proof file
c detected empty clause; start verification via backward checking
c 30026 of 780985 clauses in core                            
c 43740 of 494380 lemmas in core using 384842 resolution steps
c 0 RAT lemmas in core; 3208 redundant literals in core lemmas
s VERIFIED
c verification time: 2.972 seconds
